%%% static parameters %%%
timespan = 1;
Clients_N = [500];
Demand_W = [15];
Lt0 = [4];
Lt1 = [4];
SS_ = [0.85];
DS_D = [20];
K = [200];
MA = [500];
HC = [0.05];
%%% dynamic parameters %%%
lost_ratio_sales_ret_th = 0.0006521168613674423;
lost_ratio_sales_ret_w = 20;
lost_ratio_sales_dis_th = 8.11347546702077e-05;
lost_ratio_sales_dis_w = 100;
lost_ratio_sales_fac_th = 0.00020964224584924852;
lost_ratio_sales_fac_w = 57;
stock_customer_MA_mean_relative_th = 0.9107528023320914;
stock_customer_MA_mean_relative_w = 26;
stock_distributor_MA_mean_relative_th = 0.054508599300855054;
stock_distributor_MA_mean_relative_w = 62;
stock_retailer_MA_mean_relative_th = 0.8600195855441122;
stock_retailer_MA_mean_relative_w = 21;
stock_factory_MA_mean_relative_th = 0.8009994902709544;
stock_factory_MA_mean_relative_w = 98;
